
Gurobi 8.1.1 (mac64, Python) logging started Sun Nov  3 11:27:33 2019

Academic license - for non-commercial use only
Optimize a model with 2 rows, 2 columns and 4 nonzeros
Variable types: 0 continuous, 2 integer (0 binary)
Coefficient statistics:
  Matrix range     [1e+00, 1e+01]
  Objective range  [1e+01, 2e+01]
  Bounds range     [0e+00, 0e+00]
  RHS range        [5e+00, 4e+01]
Found heuristic solution: objective 68.0000000
Presolve time: 0.00s
Presolved: 2 rows, 2 columns, 4 nonzeros
Variable types: 0 continuous, 2 integer (0 binary)

Root relaxation: cutoff, 0 iterations, 0.00 seconds

Explored 0 nodes (0 simplex iterations) in 0.00 seconds
Thread count was 8 (of 8 available processors)

Solution count 1: 68 

Optimal solution found (tolerance 1.00e-04)
Best objective 6.800000000000e+01, best bound 6.800000000000e+01, gap 0.0000%

Gurobi 8.1.1 (mac64, Python) logging started Sun Nov  3 11:28:15 2019

Academic license - for non-commercial use only
Optimize a model with 2 rows, 2 columns and 4 nonzeros
Coefficient statistics:
  Matrix range     [1e+00, 1e+01]
  Objective range  [1e+01, 2e+01]
  Bounds range     [0e+00, 0e+00]
  RHS range        [5e+00, 4e+01]
Presolve time: 0.00s
Presolved: 2 rows, 2 columns, 4 nonzeros

Iteration    Objective       Primal Inf.    Dual Inf.      Time
       0    2.9000000e+31   4.125000e+30   2.900000e+01      0s
       2    6.8333333e+01   0.000000e+00   0.000000e+00      0s

Solved in 2 iterations and 0.00 seconds
Optimal objective  6.833333333e+01

Gurobi 8.1.1 (mac64, Python) logging started Sun Nov  3 11:39:39 2019

Academic license - for non-commercial use only
Optimize a model with 2 rows, 2 columns and 4 nonzeros
Coefficient statistics:
  Matrix range     [1e+00, 1e+01]
  Objective range  [1e+01, 2e+01]
  Bounds range     [0e+00, 0e+00]
  RHS range        [5e+00, 4e+01]
Presolve time: 0.00s
Presolved: 2 rows, 2 columns, 4 nonzeros

Iteration    Objective       Primal Inf.    Dual Inf.      Time
       0    2.9000000e+31   4.125000e+30   2.900000e+01      0s
       2    6.8333333e+01   0.000000e+00   0.000000e+00      0s

Solved in 2 iterations and 0.00 seconds
Optimal objective  6.833333333e+01
Optimize a model with 4 rows, 2 columns and 6 nonzeros
Coefficient statistics:
  Matrix range     [1e+00, 1e+01]
  Objective range  [1e+01, 2e+01]
  Bounds range     [0e+00, 0e+00]
  RHS range        [1e+00, 4e+01]
Iteration    Objective       Primal Inf.    Dual Inf.      Time
       0    6.8333333e+01   2.000000e+00   0.000000e+00      0s
       1    6.5000000e+01   0.000000e+00   0.000000e+00      0s

Solved in 1 iterations and 0.00 seconds
Optimal objective  6.500000000e+01

Gurobi 8.1.1 (mac64, Python) logging started Sun Nov  3 11:40:41 2019

Academic license - for non-commercial use only

Gurobi 8.1.1 (mac64, Python) logging started Sun Nov  3 11:40:44 2019

Academic license - for non-commercial use only

Gurobi 8.1.1 (mac64, Python) logging started Sun Nov  3 11:41:27 2019

Academic license - for non-commercial use only

Gurobi 8.1.1 (mac64, Python) logging started Sun Nov  3 11:43:12 2019

Academic license - for non-commercial use only

Gurobi 8.1.1 (mac64, Python) logging started Sun Nov  3 11:43:23 2019

Academic license - for non-commercial use only

Gurobi 8.1.1 (mac64, Python) logging started Sun Nov  3 11:43:28 2019

Academic license - for non-commercial use only

Gurobi 8.1.1 (mac64, Python) logging started Sun Nov  3 11:46:04 2019

Academic license - for non-commercial use only

Gurobi 8.1.1 (mac64, Python) logging started Sun Nov  3 11:46:14 2019

Academic license - for non-commercial use only

Gurobi 8.1.1 (mac64, Python) logging started Sun Nov  3 11:46:25 2019

Academic license - for non-commercial use only

Gurobi 8.1.1 (mac64, Python) logging started Sun Nov  3 11:46:34 2019

Academic license - for non-commercial use only

Gurobi 8.1.1 (mac64, Python) logging started Sun Nov  3 11:47:41 2019

Academic license - for non-commercial use only

Gurobi 8.1.1 (mac64, Python) logging started Sun Nov  3 11:49:13 2019

Academic license - for non-commercial use only

Gurobi 8.1.1 (mac64, Python) logging started Sun Nov  3 11:51:39 2019

Academic license - for non-commercial use only

Gurobi 8.1.1 (mac64, Python) logging started Sun Nov  3 11:52:34 2019

Academic license - for non-commercial use only

Gurobi 8.1.1 (mac64, Python) logging started Sun Nov  3 11:52:54 2019

Academic license - for non-commercial use only

Gurobi 8.1.1 (mac64, Python) logging started Sun Nov  3 11:53:01 2019

Academic license - for non-commercial use only

Gurobi 8.1.1 (mac64, Python) logging started Sun Nov  3 11:53:09 2019

Academic license - for non-commercial use only

Gurobi 8.1.1 (mac64, Python) logging started Sun Nov  3 11:53:18 2019

Academic license - for non-commercial use only

Gurobi 8.1.1 (mac64, Python) logging started Sun Nov  3 11:53:25 2019

Academic license - for non-commercial use only

Gurobi 8.1.1 (mac64, Python) logging started Sun Nov  3 11:57:12 2019

Academic license - for non-commercial use only

Gurobi 8.1.1 (mac64, Python) logging started Sun Nov  3 11:58:52 2019

Academic license - for non-commercial use only

Gurobi 8.1.1 (mac64, Python) logging started Sun Nov  3 12:00:39 2019

Academic license - for non-commercial use only

Gurobi 8.1.1 (mac64, Python) logging started Sun Nov  3 12:01:36 2019

Academic license - for non-commercial use only

Gurobi 8.1.1 (mac64, Python) logging started Sun Nov  3 12:05:15 2019

Academic license - for non-commercial use only

Gurobi 8.1.1 (mac64, Python) logging started Sun Nov  3 12:06:05 2019

Academic license - for non-commercial use only

Gurobi 8.1.1 (mac64, Python) logging started Sun Nov  3 12:06:50 2019

Academic license - for non-commercial use only

Gurobi 8.1.1 (mac64, Python) logging started Sun Nov  3 12:07:07 2019

Academic license - for non-commercial use only

Gurobi 8.1.1 (mac64, Python) logging started Sun Nov  3 12:11:04 2019

Academic license - for non-commercial use only

Gurobi 8.1.1 (mac64, Python) logging started Sun Nov  3 12:13:29 2019

Academic license - for non-commercial use only

Gurobi 8.1.1 (mac64, Python) logging started Sun Nov  3 12:13:42 2019

Academic license - for non-commercial use only

Gurobi 8.1.1 (mac64, Python) logging started Sun Nov  3 12:14:01 2019

Academic license - for non-commercial use only

Gurobi 8.1.1 (mac64, Python) logging started Sun Nov  3 12:15:20 2019

Academic license - for non-commercial use only

Gurobi 8.1.1 (mac64, Python) logging started Sun Nov  3 12:16:46 2019

Academic license - for non-commercial use only

Gurobi 8.1.1 (mac64, Python) logging started Sun Nov  3 12:17:24 2019

Academic license - for non-commercial use only

Gurobi 8.1.1 (mac64, Python) logging started Sun Nov  3 12:21:52 2019

Academic license - for non-commercial use only

Gurobi 8.1.1 (mac64, Python) logging started Sun Nov  3 12:22:53 2019

Academic license - for non-commercial use only

Gurobi 8.1.1 (mac64, Python) logging started Sun Nov  3 12:25:36 2019

Academic license - for non-commercial use only

Gurobi 8.1.1 (mac64, Python) logging started Sun Nov  3 12:31:00 2019

Academic license - for non-commercial use only

Gurobi 8.1.1 (mac64, Python) logging started Sun Nov  3 12:32:03 2019

Academic license - for non-commercial use only

Gurobi 8.1.1 (mac64, Python) logging started Sun Nov  3 12:33:53 2019

Academic license - for non-commercial use only

Gurobi 8.1.1 (mac64, Python) logging started Sun Nov  3 12:36:28 2019

Academic license - for non-commercial use only

Gurobi 8.1.1 (mac64, Python) logging started Sun Nov  3 12:37:18 2019

Academic license - for non-commercial use only

Gurobi 8.1.1 (mac64, Python) logging started Sun Nov  3 12:39:56 2019

Academic license - for non-commercial use only

Gurobi 8.1.1 (mac64, Python) logging started Sun Nov  3 12:44:31 2019

Academic license - for non-commercial use only

Gurobi 8.1.1 (mac64, Python) logging started Sun Nov  3 12:46:15 2019

Academic license - for non-commercial use only

Gurobi 8.1.1 (mac64, Python) logging started Sun Nov  3 12:47:34 2019

Academic license - for non-commercial use only

Gurobi 8.1.1 (mac64, Python) logging started Sun Nov  3 16:51:51 2019

Academic license - for non-commercial use only

Gurobi 8.1.1 (mac64, Python) logging started Sun Nov  3 16:52:45 2019

Academic license - for non-commercial use only

Gurobi 8.1.1 (mac64, Python) logging started Sun Nov  3 16:53:38 2019

Academic license - for non-commercial use only

Gurobi 8.1.1 (mac64, Python) logging started Sun Nov  3 16:57:24 2019

Academic license - for non-commercial use only

Gurobi 8.1.1 (mac64, Python) logging started Sun Nov  3 16:57:50 2019

Academic license - for non-commercial use only

Gurobi 8.1.1 (mac64, Python) logging started Sun Nov  3 17:01:32 2019

Academic license - for non-commercial use only

Gurobi 8.1.1 (mac64, Python) logging started Sun Nov  3 17:01:40 2019

Academic license - for non-commercial use only

Gurobi 8.1.1 (mac64, Python) logging started Sun Nov  3 18:12:31 2019

Academic license - for non-commercial use only

Gurobi 8.1.1 (mac64, Python) logging started Sun Nov  3 18:16:31 2019

Academic license - for non-commercial use only

Gurobi 8.1.1 (mac64, Python) logging started Sun Nov  3 18:16:48 2019

Academic license - for non-commercial use only

Gurobi 8.1.1 (mac64, Python) logging started Sun Nov  3 18:25:39 2019

Academic license - for non-commercial use only

Gurobi 8.1.1 (mac64, Python) logging started Sun Nov  3 22:42:28 2019

Academic license - for non-commercial use only

Gurobi 8.1.1 (mac64, Python) logging started Sun Nov  3 22:42:38 2019

Academic license - for non-commercial use only

Gurobi 8.1.1 (mac64, Python) logging started Sun Nov  3 22:42:44 2019

Academic license - for non-commercial use only

Gurobi 8.1.1 (mac64, Python) logging started Sun Nov  3 22:43:51 2019

Academic license - for non-commercial use only

Gurobi 8.1.1 (mac64, Python) logging started Mon Nov  4 15:15:27 2019

Academic license - for non-commercial use only

Gurobi 8.1.1 (mac64, Python) logging started Thu Nov  7 20:03:20 2019

Academic license - for non-commercial use only

Gurobi 8.1.1 (mac64, Python) logging started Thu Nov 28 16:41:18 2019

Academic license - for non-commercial use only

Gurobi 8.1.1 (mac64, Python) logging started Thu Nov 28 16:42:57 2019

Academic license - for non-commercial use only

Gurobi 8.1.1 (mac64, Python) logging started Thu Nov 28 16:48:09 2019

Academic license - for non-commercial use only

Gurobi 8.1.1 (mac64, Python) logging started Thu Nov 28 17:21:36 2019

Academic license - for non-commercial use only

Gurobi 8.1.1 (mac64, Python) logging started Thu Nov 28 17:23:15 2019

Academic license - for non-commercial use only

Gurobi 8.1.1 (mac64, Python) logging started Thu Nov 28 17:23:47 2019

Academic license - for non-commercial use only
Optimize a model with 3 rows, 6 columns and 10 nonzeros
Variable types: 2 continuous, 4 integer (4 binary)
Coefficient statistics:
  Matrix range     [1e+00, 8e+00]
  Objective range  [2e+00, 1e+01]
  Bounds range     [1e+00, 1e+00]
  RHS range        [1e+00, 1e+01]
Presolve removed 3 rows and 6 columns
Presolve time: 0.00s
Presolve: All rows and columns removed

Explored 0 nodes (0 simplex iterations) in 0.00 seconds
Thread count was 1 (of 8 available processors)

Solution count 1: 18 

Optimal solution found (tolerance 1.00e-04)
Best objective 1.800000000000e+01, best bound 1.800000000000e+01, gap 0.0000%
Optimize a model with 3 rows, 6 columns and 10 nonzeros
Variable types: 2 continuous, 4 integer (4 binary)
Coefficient statistics:
  Matrix range     [1e+00, 8e+00]
  Objective range  [1e+00, 1e+01]
  Bounds range     [1e+00, 1e+00]
  RHS range        [1e+00, 1e+01]

Loaded MIP start with objective 17

Presolve removed 3 rows and 6 columns
Presolve time: 0.00s
Presolve: All rows and columns removed

Explored 0 nodes (0 simplex iterations) in 0.00 seconds
Thread count was 1 (of 8 available processors)

Solution count 1: 17 

Optimal solution found (tolerance 1.00e-04)
Best objective 1.700000000000e+01, best bound 1.700000000000e+01, gap 0.0000%
Optimize a model with 3 rows, 6 columns and 10 nonzeros
Variable types: 2 continuous, 4 integer (4 binary)
Coefficient statistics:
  Matrix range     [1e+00, 8e+00]
  Objective range  [5e-01, 1e+01]
  Bounds range     [1e+00, 1e+00]
  RHS range        [1e+00, 1e+01]

Loaded MIP start with objective 16.5

Presolve removed 3 rows and 6 columns
Presolve time: 0.00s
Presolve: All rows and columns removed

Explored 0 nodes (0 simplex iterations) in 0.00 seconds
Thread count was 1 (of 8 available processors)

Solution count 1: 16.5 

Optimal solution found (tolerance 1.00e-04)
Best objective 1.650000000000e+01, best bound 1.650000000000e+01, gap 0.0000%
Optimize a model with 3 rows, 6 columns and 10 nonzeros
Variable types: 2 continuous, 4 integer (4 binary)
Coefficient statistics:
  Matrix range     [1e+00, 8e+00]
  Objective range  [2e-01, 1e+01]
  Bounds range     [1e+00, 1e+00]
  RHS range        [1e+00, 1e+01]

Loaded MIP start with objective 16.1667

Presolve removed 3 rows and 6 columns
Presolve time: 0.00s
Presolve: All rows and columns removed

Explored 0 nodes (0 simplex iterations) in 0.00 seconds
Thread count was 1 (of 8 available processors)

Solution count 1: 16.1667 

Optimal solution found (tolerance 1.00e-04)
Best objective 1.616666666667e+01, best bound 1.616666666667e+01, gap 0.0000%
Optimize a model with 3 rows, 6 columns and 10 nonzeros
Variable types: 2 continuous, 4 integer (4 binary)
Coefficient statistics:
  Matrix range     [1e+00, 8e+00]
  Objective range  [4e+00, 1e+01]
  Bounds range     [1e+00, 1e+00]
  RHS range        [1e+00, 1e+01]

Loaded MIP start with objective 16

Presolve removed 3 rows and 6 columns
Presolve time: 0.00s
Presolve: All rows and columns removed

Explored 0 nodes (0 simplex iterations) in 0.00 seconds
Thread count was 1 (of 8 available processors)

Solution count 1: 16 

Optimal solution found (tolerance 1.00e-04)
Best objective 1.600000000000e+01, best bound 1.600000000000e+01, gap 0.0000%

Gurobi 8.1.1 (mac64, Python) logging started Thu Nov 28 17:25:06 2019

Academic license - for non-commercial use only

Gurobi 8.1.1 (mac64, Python) logging started Thu Nov 28 17:29:16 2019

Academic license - for non-commercial use only

Gurobi 8.1.1 (mac64, Python) logging started Thu Nov 28 17:30:24 2019

Academic license - for non-commercial use only
